p cnf 150 2934
1 2 3 4 5 0
6 7 8 9 10 0
11 12 13 14 15 0
16 17 18 19 20 0
21 22 23 24 25 0
26 27 28 29 30 0
31 32 33 34 35 0
36 37 38 39 40 0
41 42 43 44 45 0
46 47 48 49 50 0
51 52 53 54 55 0
56 57 58 59 60 0
61 62 63 64 65 0
66 67 68 69 70 0
71 72 73 74 75 0
76 77 78 79 80 0
81 82 83 84 85 0
86 87 88 89 90 0
91 92 93 94 95 0
96 97 98 99 100 0
101 102 103 104 105 0
106 107 108 109 110 0
111 112 113 114 115 0
116 117 118 119 120 0
121 122 123 124 125 0
126 127 128 129 130 0
131 132 133 134 135 0
136 137 138 139 140 0
141 142 143 144 145 0
146 147 148 149 150 0
-1 -2 0
-1 -3 0
-1 -4 0
-1 -5 0
-2 -3 0
-2 -4 0
-2 -5 0
-3 -4 0
-3 -5 0
-4 -5 0
-6 -7 0
-6 -8 0
-6 -9 0
-6 -10 0
-7 -8 0
-7 -9 0
-7 -10 0
-8 -9 0
-8 -10 0
-9 -10 0
-11 -12 0
-11 -13 0
-11 -14 0
-11 -15 0
-12 -13 0
-12 -14 0
-12 -15 0
-13 -14 0
-13 -15 0
-14 -15 0
-16 -17 0
-16 -18 0
-16 -19 0
-16 -20 0
-17 -18 0
-17 -19 0
-17 -20 0
-18 -19 0
-18 -20 0
-19 -20 0
-21 -22 0
-21 -23 0
-21 -24 0
-21 -25 0
-22 -23 0
-22 -24 0
-22 -25 0
-23 -24 0
-23 -25 0
-24 -25 0
-26 -27 0
-26 -28 0
-26 -29 0
-26 -30 0
-27 -28 0
-27 -29 0
-27 -30 0
-28 -29 0
-28 -30 0
-29 -30 0
-31 -32 0
-31 -33 0
-31 -34 0
-31 -35 0
-32 -33 0
-32 -34 0
-32 -35 0
-33 -34 0
-33 -35 0
-34 -35 0
-36 -37 0
-36 -38 0
-36 -39 0
-36 -40 0
-37 -38 0
-37 -39 0
-37 -40 0
-38 -39 0
-38 -40 0
-39 -40 0
-41 -42 0
-41 -43 0
-41 -44 0
-41 -45 0
-42 -43 0
-42 -44 0
-42 -45 0
-43 -44 0
-43 -45 0
-44 -45 0
-46 -47 0
-46 -48 0
-46 -49 0
-46 -50 0
-47 -48 0
-47 -49 0
-47 -50 0
-48 -49 0
-48 -50 0
-49 -50 0
-51 -52 0
-51 -53 0
-51 -54 0
-51 -55 0
-52 -53 0
-52 -54 0
-52 -55 0
-53 -54 0
-53 -55 0
-54 -55 0
-56 -57 0
-56 -58 0
-56 -59 0
-56 -60 0
-57 -58 0
-57 -59 0
-57 -60 0
-58 -59 0
-58 -60 0
-59 -60 0
-61 -62 0
-61 -63 0
-61 -64 0
-61 -65 0
-62 -63 0
-62 -64 0
-62 -65 0
-63 -64 0
-63 -65 0
-64 -65 0
-66 -67 0
-66 -68 0
-66 -69 0
-66 -70 0
-67 -68 0
-67 -69 0
-67 -70 0
-68 -69 0
-68 -70 0
-69 -70 0
-71 -72 0
-71 -73 0
-71 -74 0
-71 -75 0
-72 -73 0
-72 -74 0
-72 -75 0
-73 -74 0
-73 -75 0
-74 -75 0
-76 -77 0
-76 -78 0
-76 -79 0
-76 -80 0
-77 -78 0
-77 -79 0
-77 -80 0
-78 -79 0
-78 -80 0
-79 -80 0
-81 -82 0
-81 -83 0
-81 -84 0
-81 -85 0
-82 -83 0
-82 -84 0
-82 -85 0
-83 -84 0
-83 -85 0
-84 -85 0
-86 -87 0
-86 -88 0
-86 -89 0
-86 -90 0
-87 -88 0
-87 -89 0
-87 -90 0
-88 -89 0
-88 -90 0
-89 -90 0
-91 -92 0
-91 -93 0
-91 -94 0
-91 -95 0
-92 -93 0
-92 -94 0
-92 -95 0
-93 -94 0
-93 -95 0
-94 -95 0
-96 -97 0
-96 -98 0
-96 -99 0
-96 -100 0
-97 -98 0
-97 -99 0
-97 -100 0
-98 -99 0
-98 -100 0
-99 -100 0
-101 -102 0
-101 -103 0
-101 -104 0
-101 -105 0
-102 -103 0
-102 -104 0
-102 -105 0
-103 -104 0
-103 -105 0
-104 -105 0
-106 -107 0
-106 -108 0
-106 -109 0
-106 -110 0
-107 -108 0
-107 -109 0
-107 -110 0
-108 -109 0
-108 -110 0
-109 -110 0
-111 -112 0
-111 -113 0
-111 -114 0
-111 -115 0
-112 -113 0
-112 -114 0
-112 -115 0
-113 -114 0
-113 -115 0
-114 -115 0
-116 -117 0
-116 -118 0
-116 -119 0
-116 -120 0
-117 -118 0
-117 -119 0
-117 -120 0
-118 -119 0
-118 -120 0
-119 -120 0
-121 -122 0
-121 -123 0
-121 -124 0
-121 -125 0
-122 -123 0
-122 -124 0
-122 -125 0
-123 -124 0
-123 -125 0
-124 -125 0
-126 -127 0
-126 -128 0
-126 -129 0
-126 -130 0
-127 -128 0
-127 -129 0
-127 -130 0
-128 -129 0
-128 -130 0
-129 -130 0
-131 -132 0
-131 -133 0
-131 -134 0
-131 -135 0
-132 -133 0
-132 -134 0
-132 -135 0
-133 -134 0
-133 -135 0
-134 -135 0
-136 -137 0
-136 -138 0
-136 -139 0
-136 -140 0
-137 -138 0
-137 -139 0
-137 -140 0
-138 -139 0
-138 -140 0
-139 -140 0
-141 -142 0
-141 -143 0
-141 -144 0
-141 -145 0
-142 -143 0
-142 -144 0
-142 -145 0
-143 -144 0
-143 -145 0
-144 -145 0
-146 -147 0
-146 -148 0
-146 -149 0
-146 -150 0
-147 -148 0
-147 -149 0
-147 -150 0
-148 -149 0
-148 -150 0
-149 -150 0
-5 -28 0
-3 -29 0
-1 -26 0
-2 -28 0
-1 -27 0
-2 -27 0
-5 -27 0
-3 -27 0
-3 -26 0
-1 -29 0
-4 -26 0
-4 -29 0
-3 -31 0
-4 -32 0
-2 -32 0
-1 -33 0
-2 -31 0
-5 -33 0
-5 -31 0
-2 -35 0
-2 -34 0
-3 -32 0
-1 -35 0
-3 -34 0
-2 -37 0
-4 -37 0
-3 -36 0
-5 -37 0
-4 -40 0
-2 -38 0
-2 -36 0
-1 -36 0
-4 -38 0
-1 -39 0
-5 -39 0
-1 -37 0
-1 -50 0
-3 -49 0
-2 -46 0
-5 -47 0
-4 -47 0
-1 -47 0
-5 -46 0
-3 -46 0
-1 -48 0
-3 -48 0
-2 -50 0
-2 -48 0
-5 -51 0
-3 -53 0
-1 -54 0
-4 -51 0
-4 -55 0
-2 -55 0
-1 -55 0
-1 -52 0
-4 -54 0
-2 -54 0
-2 -51 0
-3 -55 0
-2 -57 0
-1 -58 0
-3 -60 0
-5 -59 0
-4 -56 0
-3 -57 0
-2 -59 0
-3 -59 0
-4 -59 0
-4 -58 0
-4 -57 0
-5 -60 0
-3 -69 0
-2 -69 0
-4 -70 0
-4 -66 0
-1 -67 0
-5 -66 0
-2 -66 0
-3 -70 0
-2 -68 0
-2 -70 0
-2 -67 0
-5 -69 0
-5 -71 0
-1 -73 0
-3 -71 0
-5 -72 0
-1 -74 0
-5 -74 0
-2 -74 0
-3 -73 0
-2 -72 0
-4 -71 0
-4 -73 0
-1 -71 0
-2 -88 0
-1 -88 0
-5 -89 0
-2 -89 0
-2 -86 0
-4 -90 0
-4 -86 0
-1 -87 0
-4 -87 0
-4 -89 0
-5 -90 0
-2 -87 0
-3 -91 0
-3 -93 0
-2 -93 0
-5 -91 0
-1 -94 0
-1 -95 0
-1 -91 0
-4 -95 0
-5 -93 0
-5 -94 0
-2 -92 0
-4 -91 0
-2 -98 0
-1 -96 0
-5 -97 0
-4 -98 0
-3 -99 0
-3 -97 0
-5 -99 0
-1 -98 0
-2 -97 0
-4 -99 0
-5 -100 0
-4 -96 0
-3 -102 0
-3 -103 0
-1 -105 0
-5 -105 0
-4 -103 0
-4 -105 0
-2 -103 0
-1 -102 0
-5 -103 0
-1 -103 0
-5 -102 0
-5 -104 0
-1 -114 0
-4 -113 0
-3 -115 0
-3 -114 0
-2 -115 0
-2 -111 0
-1 -112 0
-1 -111 0
-4 -115 0
-3 -111 0
-4 -114 0
-5 -115 0
-4 -123 0
-1 -125 0
-5 -123 0
-1 -123 0
-4 -122 0
-2 -121 0
-5 -122 0
-1 -121 0
-5 -121 0
-2 -124 0
-3 -122 0
-2 -122 0
-1 -148 0
-1 -150 0
-1 -147 0
-4 -147 0
-1 -149 0
-4 -146 0
-3 -149 0
-5 -148 0
-1 -146 0
-5 -147 0
-4 -148 0
-2 -149 0
-9 -35 0
-10 -33 0
-9 -34 0
-10 -34 0
-6 -33 0
-7 -35 0
-7 -32 0
-6 -35 0
-8 -31 0
-6 -32 0
-9 -32 0
-9 -33 0
-10 -47 0
-9 -49 0
-7 -48 0
-7 -47 0
-9 -50 0
-7 -46 0
-8 -47 0
-7 -50 0
-8 -48 0
-10 -46 0
-6 -46 0
-9 -47 0
-10 -59 0
-9 -56 0
-10 -60 0
-8 -58 0
-8 -56 0
-6 -56 0
-7 -60 0
-6 -60 0
-9 -59 0
-7 -59 0
-7 -58 0
-9 -60 0
-6 -70 0
-7 -68 0
-9 -68 0
-7 -66 0
-6 -68 0
-7 -67 0
-7 -69 0
-10 -69 0
-7 -70 0
-8 -67 0
-8 -66 0
-10 -68 0
-8 -71 0
-9 -72 0
-6 -74 0
-6 -71 0
-8 -74 0
-9 -74 0
-7 -72 0
-7 -75 0
-9 -75 0
-7 -73 0
-6 -72 0
-10 -75 0
-9 -77 0
-6 -76 0
-6 -78 0
-9 -79 0
-10 -77 0
-7 -80 0
-8 -79 0
-10 -76 0
-7 -79 0
-6 -79 0
-6 -77 0
-7 -78 0
-9 -81 0
-7 -84 0
-9 -85 0
-10 -82 0
-8 -83 0
-6 -85 0
-10 -85 0
-10 -81 0
-10 -83 0
-7 -81 0
-6 -81 0
-6 -83 0
-7 -91 0
-7 -93 0
-8 -92 0
-8 -93 0
-6 -92 0
-9 -93 0
-9 -94 0
-6 -91 0
-9 -92 0
-7 -94 0
-7 -92 0
-6 -95 0
-7 -98 0
-6 -96 0
-10 -96 0
-9 -96 0
-8 -97 0
-9 -99 0
-6 -97 0
-6 -100 0
-10 -99 0
-9 -98 0
-9 -97 0
-8 -98 0
-10 -122 0
-6 -121 0
-9 -121 0
-10 -123 0
-7 -122 0
-6 -123 0
-9 -125 0
-8 -123 0
-10 -124 0
-9 -123 0
-10 -121 0
-8 -122 0
-7 -130 0
-8 -129 0
-10 -130 0
-10 -129 0
-9 -129 0
-7 -126 0
-10 -127 0
-6 -128 0
-9 -130 0
-7 -127 0
-7 -129 0
-6 -127 0
-7 -137 0
-9 -139 0
-7 -138 0
-9 -136 0
-6 -139 0
-6 -137 0
-7 -136 0
-8 -139 0
-10 -139 0
-9 -140 0
-10 -140 0
-8 -140 0
-13 -39 0
-15 -39 0
-15 -36 0
-11 -39 0
-12 -36 0
-14 -37 0
-13 -37 0
-14 -38 0
-14 -40 0
-15 -37 0
-14 -39 0
-12 -39 0
-11 -42 0
-11 -44 0
-13 -42 0
-15 -42 0
-15 -44 0
-14 -44 0
-14 -45 0
-12 -44 0
-12 -41 0
-13 -43 0
-14 -41 0
-11 -43 0
-12 -64 0
-15 -61 0
-12 -61 0
-12 -62 0
-11 -61 0
-15 -64 0
-13 -65 0
-15 -65 0
-14 -61 0
-14 -63 0
-14 -64 0
-11 -63 0
-12 -66 0
-11 -67 0
-12 -69 0
-15 -66 0
-14 -68 0
-14 -70 0
-12 -68 0
-14 -69 0
-15 -68 0
-13 -68 0
-11 -66 0
-13 -69 0
-12 -72 0
-15 -72 0
-14 -71 0
-14 -72 0
-11 -74 0
-13 -71 0
-12 -71 0
-11 -75 0
-11 -73 0
-14 -73 0
-14 -75 0
-12 -73 0
-11 -76 0
-12 -80 0
-12 -78 0
-11 -80 0
-11 -79 0
-13 -80 0
-11 -78 0
-12 -77 0
-14 -77 0
-15 -79 0
-13 -76 0
-15 -78 0
-12 -90 0
-12 -87 0
-11 -89 0
-15 -86 0
-15 -89 0
-15 -87 0
-11 -88 0
-13 -88 0
-13 -89 0
-14 -89 0
-12 -86 0
-14 -88 0
-11 -93 0
-15 -91 0
-15 -95 0
-14 -94 0
-13 -91 0
-12 -91 0
-14 -95 0
-11 -95 0
-13 -94 0
-12 -92 0
-15 -93 0
-13 -95 0
-14 -136 0
-14 -138 0
-13 -139 0
-12 -136 0
-11 -138 0
-13 -136 0
-15 -139 0
-12 -137 0
-11 -139 0
-15 -140 0
-14 -140 0
-11 -140 0
-14 -150 0
-13 -146 0
-14 -149 0
-13 -147 0
-11 -148 0
-13 -150 0
-15 -150 0
-15 -149 0
-15 -146 0
-12 -150 0
-15 -148 0
-11 -147 0
-17 -31 0
-18 -33 0
-20 -31 0
-17 -34 0
-19 -32 0
-16 -32 0
-17 -35 0
-18 -31 0
-20 -34 0
-18 -34 0
-16 -33 0
-19 -34 0
-17 -39 0
-17 -37 0
-20 -38 0
-16 -40 0
-19 -40 0
-19 -39 0
-18 -37 0
-20 -36 0
-16 -36 0
-17 -36 0
-16 -38 0
-18 -39 0
-19 -47 0
-16 -49 0
-18 -46 0
-20 -47 0
-19 -46 0
-19 -48 0
-18 -47 0
-17 -46 0
-17 -47 0
-20 -48 0
-18 -48 0
-20 -50 0
-20 -55 0
-19 -55 0
-18 -51 0
-19 -51 0
-19 -53 0
-20 -54 0
-20 -51 0
-16 -51 0
-17 -54 0
-18 -52 0
-16 -54 0
-19 -54 0
-18 -57 0
-20 -58 0
-16 -57 0
-19 -59 0
-18 -58 0
-20 -60 0
-17 -58 0
-16 -58 0
-19 -58 0
-19 -56 0
-17 -60 0
-20 -56 0
-17 -82 0
-16 -83 0
-20 -81 0
-20 -85 0
-19 -83 0
-18 -84 0
-18 -85 0
-20 -84 0
-17 -81 0
-20 -83 0
-19 -82 0
-18 -81 0
-18 -114 0
-19 -113 0
-18 -113 0
-16 -115 0
-16 -114 0
-16 -113 0
-17 -112 0
-16 -111 0
-17 -111 0
-18 -112 0
-20 -114 0
-20 -113 0
-18 -120 0
-16 -120 0
-17 -119 0
-18 -116 0
-18 -118 0
-20 -117 0
-20 -119 0
-17 -116 0
-17 -118 0
-16 -119 0
-18 -119 0
-20 -116 0
-19 -128 0
-18 -128 0
-17 -129 0
-20 -126 0
-17 -130 0
-18 -127 0
-17 -126 0
-16 -128 0
-19 -126 0
-20 -129 0
-19 -130 0
-17 -128 0
-19 -135 0
-16 -133 0
-18 -132 0
-18 -133 0
-20 -131 0
-18 -134 0
-20 -134 0
-17 -134 0
-19 -131 0
-18 -135 0
-20 -135 0
-17 -131 0
-17 -138 0
-18 -137 0
-17 -140 0
-16 -136 0
-17 -136 0
-20 -139 0
-18 -136 0
-20 -137 0
-18 -138 0
-18 -139 0
-20 -138 0
-16 -138 0
-18 -144 0
-19 -142 0
-20 -143 0
-20 -142 0
-16 -145 0
-18 -145 0
-17 -142 0
-19 -143 0
-18 -142 0
-17 -144 0
-17 -143 0
-18 -143 0
-23 -27 0
-24 -29 0
-22 -29 0
-24 -30 0
-21 -29 0
-23 -28 0
-25 -30 0
-25 -27 0
-23 -26 0
-24 -27 0
-22 -26 0
-23 -30 0
-22 -31 0
-23 -32 0
-22 -33 0
-21 -31 0
-24 -31 0
-21 -33 0
-22 -32 0
-23 -35 0
-21 -34 0
-24 -34 0
-25 -35 0
-21 -35 0
-22 -44 0
-25 -44 0
-21 -43 0
-24 -44 0
-25 -41 0
-22 -43 0
-24 -45 0
-24 -43 0
-23 -43 0
-25 -45 0
-22 -41 0
-21 -44 0
-24 -48 0
-23 -46 0
-21 -46 0
-22 -46 0
-22 -47 0
-22 -48 0
-23 -50 0
-23 -47 0
-25 -50 0
-21 -49 0
-23 -49 0
-21 -48 0
-23 -53 0
-22 -55 0
-21 -52 0
-25 -53 0
-23 -55 0
-25 -54 0
-21 -53 0
-24 -55 0
-24 -52 0
-22 -51 0
-21 -54 0
-21 -55 0
-22 -56 0
-24 -57 0
-25 -56 0
-24 -59 0
-21 -58 0
-22 -58 0
-25 -57 0
-23 -59 0
-21 -60 0
-24 -60 0
-23 -56 0
-23 -57 0
-24 -63 0
-23 -64 0
-24 -62 0
-24 -61 0
-24 -64 0
-25 -63 0
-22 -65 0
-25 -61 0
-25 -62 0
-21 -62 0
-24 -65 0
-21 -61 0
-21 -79 0
-25 -79 0
-24 -78 0
-21 -77 0
-21 -76 0
-22 -76 0
-25 -80 0
-23 -80 0
-24 -80 0
-21 -80 0
-21 -78 0
-23 -76 0
-21 -83 0
-25 -82 0
-23 -82 0
-23 -81 0
-24 -83 0
-25 -85 0
-23 -85 0
-23 -83 0
-24 -81 0
-24 -85 0
-21 -85 0
-21 -81 0
-21 -89 0
-21 -86 0
-23 -89 0
-22 -90 0
-24 -90 0
-23 -87 0
-25 -90 0
-24 -86 0
-22 -88 0
-21 -88 0
-24 -87 0
-25 -89 0
-21 -92 0
-21 -91 0
-23 -92 0
-22 -91 0
-24 -92 0
-22 -93 0
-24 -91 0
-25 -95 0
-21 -93 0
-24 -95 0
-22 -94 0
-25 -91 0
-25 -101 0
-21 -101 0
-22 -101 0
-21 -103 0
-21 -104 0
-23 -101 0
-21 -105 0
-23 -102 0
-24 -104 0
-22 -105 0
-25 -103 0
-24 -105 0
-23 -107 0
-21 -108 0
-22 -109 0
-21 -106 0
-22 -106 0
-25 -107 0
-25 -109 0
-24 -110 0
-23 -106 0
-24 -108 0
-23 -109 0
-22 -108 0
-23 -120 0
-24 -116 0
-25 -116 0
-22 -120 0
-22 -117 0
-22 -119 0
-21 -118 0
-25 -119 0
-21 -117 0
-25 -120 0
-23 -119 0
-21 -116 0
-24 -121 0
-25 -122 0
-25 -123 0
-23 -121 0
-22 -122 0
-21 -124 0
-24 -124 0
-21 -122 0
-25 -124 0
-23 -124 0
-21 -125 0
-24 -125 0
-21 -129 0
-22 -130 0
-23 -127 0
-22 -128 0
-24 -127 0
-22 -126 0
-22 -129 0
-21 -127 0
-21 -128 0
-24 -129 0
-23 -130 0
-22 -127 0
-25 -134 0
-21 -132 0
-22 -133 0
-25 -132 0
-22 -132 0
-24 -132 0
-24 -131 0
-24 -135 0
-21 -131 0
-25 -131 0
-23 -135 0
-25 -133 0
-25 -136 0
-21 -136 0
-21 -139 0
-22 -140 0
-24 -136 0
-25 -138 0
-23 -137 0
-22 -136 0
-21 -138 0
-23 -140 0
-24 -140 0
-23 -138 0
-24 -149 0
-22 -147 0
-25 -148 0
-25 -149 0
-23 -147 0
-24 -150 0
-23 -150 0
-25 -150 0
-21 -147 0
-25 -147 0
-21 -148 0
-22 -146 0
-26 -42 0
-30 -42 0
-26 -45 0
-30 -43 0
-28 -44 0
-27 -42 0
-30 -45 0
-26 -43 0
-27 -45 0
-29 -44 0
-28 -43 0
-28 -41 0
-30 -46 0
-28 -46 0
-29 -49 0
-29 -50 0
-29 -48 0
-28 -50 0
-27 -50 0
-27 -46 0
-26 -50 0
-27 -48 0
-26 -48 0
-29 -46 0
-28 -53 0
-26 -51 0
-28 -51 0
-27 -53 0
-30 -54 0
-27 -52 0
-30 -55 0
-26 -53 0
-29 -54 0
-30 -51 0
-30 -53 0
-28 -54 0
-29 -58 0
-30 -57 0
-27 -60 0
-28 -58 0
-29 -59 0
-28 -59 0
-29 -56 0
-27 -58 0
-27 -56 0
-26 -56 0
-29 -57 0
-27 -59 0
-27 -66 0
-28 -68 0
-29 -70 0
-28 -70 0
-30 -67 0
-27 -70 0
-29 -69 0
-30 -68 0
-27 -68 0
-29 -67 0
-26 -69 0
-28 -67 0
-30 -71 0
-26 -71 0
-30 -75 0
-29 -73 0
-27 -73 0
-26 -75 0
-29 -72 0
-29 -71 0
-28 -74 0
-30 -72 0
-26 -73 0
-30 -74 0
-28 -78 0
-29 -79 0
-29 -80 0
-26 -78 0
-26 -76 0
-29 -76 0
-30 -76 0
-30 -79 0
-27 -79 0
-26 -80 0
-28 -79 0
-30 -78 0
-27 -99 0
-26 -99 0
-29 -96 0
-28 -99 0
-26 -96 0
-29 -100 0
-30 -96 0
-26 -97 0
-29 -99 0
-30 -99 0
-30 -100 0
-27 -97 0
-28 -109 0
-26 -106 0
-30 -107 0
-27 -109 0
-29 -107 0
-27 -106 0
-30 -110 0
-30 -106 0
-28 -107 0
-29 -106 0
-30 -108 0
-29 -109 0
-26 -111 0
-28 -113 0
-27 -114 0
-27 -115 0
-29 -112 0
-29 -111 0
-29 -113 0
-30 -114 0
-27 -111 0
-30 -112 0
-29 -114 0
-28 -115 0
-30 -124 0
-27 -125 0
-27 -122 0
-28 -122 0
-29 -123 0
-26 -121 0
-28 -121 0
-28 -124 0
-27 -121 0
-27 -124 0
-26 -122 0
-29 -122 0
-26 -134 0
-30 -134 0
-26 -133 0
-28 -133 0
-30 -132 0
-27 -133 0
-27 -134 0
-29 -133 0
-29 -131 0
-29 -135 0
-28 -134 0
-30 -131 0
-29 -145 0
-26 -145 0
-27 -143 0
-28 -141 0
-30 -145 0
-28 -142 0
-27 -144 0
-29 -142 0
-28 -144 0
-30 -141 0
-26 -141 0
-26 -142 0
-34 -57 0
-32 -58 0
-33 -56 0
-35 -58 0
-35 -59 0
-34 -56 0
-35 -60 0
-34 -60 0
-33 -58 0
-35 -56 0
-33 -59 0
-33 -60 0
-33 -70 0
-34 -69 0
-32 -67 0
-32 -70 0
-32 -69 0
-34 -70 0
-31 -66 0
-33 -66 0
-35 -70 0
-33 -67 0
-33 -68 0
-34 -66 0
-32 -74 0
-33 -72 0
-34 -73 0
-32 -71 0
-31 -75 0
-32 -72 0
-31 -74 0
-35 -73 0
-34 -71 0
-31 -72 0
-32 -75 0
-33 -75 0
-35 -97 0
-31 -100 0
-35 -96 0
-32 -100 0
-33 -97 0
-31 -99 0
-33 -99 0
-34 -96 0
-32 -98 0
-34 -98 0
-31 -96 0
-32 -96 0
-34 -112 0
-33 -115 0
-32 -114 0
-35 -112 0
-34 -111 0
-34 -115 0
-35 -111 0
-35 -115 0
-33 -111 0
-31 -112 0
-34 -114 0
-35 -114 0
-33 -127 0
-31 -128 0
-31 -130 0
-33 -128 0
-35 -128 0
-33 -130 0
-35 -130 0
-34 -130 0
-32 -126 0
-34 -127 0
-31 -126 0
-32 -127 0
-34 -140 0
-31 -136 0
-32 -138 0
-31 -137 0
-33 -137 0
-35 -140 0
-34 -136 0
-35 -139 0
-33 -136 0
-31 -140 0
-32 -140 0
-34 -138 0
-36 -59 0
-37 -60 0
-39 -56 0
-40 -59 0
-39 -57 0
-37 -57 0
-38 -56 0
-38 -57 0
-38 -58 0
-40 -58 0
-40 -57 0
-38 -60 0
-37 -78 0
-39 -80 0
-36 -78 0
-37 -77 0
-40 -76 0
-38 -78 0
-36 -77 0
-38 -76 0
-39 -77 0
-37 -76 0
-39 -76 0
-37 -80 0
-40 -107 0
-39 -107 0
-39 -110 0
-38 -106 0
-38 -110 0
-38 -109 0
-40 -106 0
-39 -109 0
-40 -110 0
-37 -108 0
-37 -106 0
-40 -109 0
-40 -115 0
-39 -113 0
-38 -115 0
-39 -114 0
-40 -113 0
-40 -114 0
-36 -114 0
-39 -112 0
-37 -113 0
-40 -112 0
-36 -113 0
-40 -111 0
-40 -117 0
-37 -120 0
-38 -120 0
-36 -117 0
-39 -120 0
-38 -119 0
-37 -118 0
-36 -116 0
-38 -117 0
-37 -116 0
-39 -116 0
-36 -120 0
-40 -121 0
-38 -121 0
-37 -123 0
-36 -122 0
-39 -121 0
-38 -122 0
-36 -124 0
-38 -125 0
-37 -124 0
-39 -125 0
-40 -123 0
-37 -125 0
-39 -127 0
-36 -128 0
-40 -130 0
-39 -130 0
-39 -126 0
-37 -126 0
-37 -128 0
-36 -126 0
-39 -129 0
-40 -126 0
-36 -127 0
-37 -130 0
-36 -133 0
-39 -131 0
-40 -131 0
-36 -132 0
-37 -134 0
-37 -132 0
-39 -135 0
-39 -132 0
-39 -134 0
-37 -131 0
-36 -131 0
-38 -134 0
-37 -143 0
-38 -145 0
-39 -141 0
-36 -141 0
-40 -143 0
-39 -142 0
-36 -144 0
-39 -143 0
-36 -142 0
-40 -141 0
-37 -145 0
-38 -141 0
-45 -48 0
-42 -48 0
-45 -46 0
-41 -47 0
-43 -49 0
-41 -49 0
-42 -49 0
-44 -48 0
-42 -46 0
-41 -46 0
-43 -46 0
-44 -49 0
-44 -56 0
-45 -56 0
-42 -56 0
-43 -59 0
-43 -58 0
-42 -57 0
-41 -59 0
-45 -58 0
-45 -57 0
-44 -60 0
-43 -60 0
-43 -56 0
-41 -65 0
-41 -63 0
-43 -63 0
-42 -64 0
-43 -62 0
-43 -64 0
-42 -63 0
-45 -64 0
-45 -61 0
-42 -62 0
-44 -63 0
-42 -65 0
-44 -67 0
-44 -66 0
-43 -67 0
-45 -70 0
-44 -68 0
-44 -69 0
-41 -69 0
-43 -68 0
-42 -70 0
-42 -68 0
-45 -67 0
-43 -70 0
-41 -74 0
-45 -72 0
-45 -74 0
-44 -72 0
-45 -71 0
-41 -75 0
-42 -73 0
-41 -71 0
-42 -71 0
-43 -72 0
-42 -74 0
-43 -75 0
-43 -83 0
-45 -85 0
-42 -81 0
-45 -82 0
-44 -83 0
-42 -84 0
-44 -84 0
-41 -85 0
-45 -84 0
-44 -81 0
-44 -82 0
-41 -82 0
-45 -86 0
-41 -89 0
-44 -87 0
-43 -86 0
-43 -90 0
-44 -88 0
-42 -90 0
-43 -89 0
-45 -89 0
-42 -88 0
-41 -86 0
-42 -89 0
-44 -99 0
-43 -99 0
-42 -98 0
-41 -96 0
-43 -96 0
-43 -100 0
-41 -97 0
-41 -99 0
-42 -100 0
-44 -98 0
-42 -97 0
-45 -98 0
-44 -101 0
-42 -102 0
-42 -101 0
-43 -103 0
-42 -105 0
-42 -103 0
-45 -103 0
-41 -102 0
-43 -102 0
-41 -103 0
-42 -104 0
-43 -101 0
-42 -122 0
-41 -122 0
-44 -122 0
-45 -125 0
-45 -124 0
-42 -125 0
-45 -121 0
-44 -124 0
-44 -123 0
-44 -121 0
-43 -123 0
-41 -121 0
-43 -130 0
-42 -130 0
-45 -130 0
-43 -128 0
-43 -126 0
-41 -128 0
-42 -127 0
-44 -129 0
-42 -126 0
-41 -129 0
-45 -127 0
-44 -126 0
-42 -139 0
-43 -137 0
-42 -140 0
-45 -139 0
-44 -137 0
-45 -138 0
-44 -140 0
-44 -136 0
-41 -139 0
-43 -139 0
-42 -138 0
-42 -137 0
-45 -149 0
-41 -147 0
-43 -147 0
-41 -146 0
-44 -148 0
-43 -150 0
-41 -149 0
-44 -147 0
-42 -150 0
-44 -150 0
-42 -147 0
-45 -148 0
-46 -66 0
-50 -66 0
-46 -69 0
-47 -70 0
-50 -69 0
-47 -69 0
-47 -66 0
-46 -68 0
-48 -70 0
-46 -70 0
-48 -66 0
-46 -67 0
-46 -72 0
-46 -74 0
-50 -74 0
-47 -73 0
-49 -74 0
-49 -75 0
-50 -73 0
-47 -72 0
-48 -73 0
-50 -71 0
-46 -75 0
-47 -75 0
-47 -76 0
-50 -76 0
-46 -76 0
-48 -79 0
-48 -76 0
-46 -80 0
-49 -80 0
-48 -78 0
-50 -80 0
-50 -77 0
-49 -77 0
-47 -79 0
-46 -94 0
-46 -91 0
-48 -95 0
-49 -93 0
-47 -92 0
-47 -94 0
-48 -91 0
-46 -92 0
-47 -93 0
-48 -94 0
-49 -92 0
-48 -92 0
-47 -99 0
-48 -96 0
-50 -98 0
-50 -99 0
-50 -100 0
-49 -97 0
-47 -96 0
-47 -100 0
-48 -97 0
-50 -97 0
-49 -100 0
-46 -97 0
-48 -105 0
-46 -104 0
-50 -101 0
-47 -103 0
-49 -101 0
-50 -105 0
-46 -103 0
-49 -102 0
-48 -104 0
-46 -102 0
-48 -102 0
-48 -101 0
-50 -108 0
-50 -107 0
-49 -110 0
-49 -109 0
-47 -106 0
-48 -106 0
-48 -109 0
-49 -106 0
-47 -109 0
-46 -106 0
-47 -107 0
-50 -109 0
-49 -128 0
-48 -130 0
-46 -127 0
-48 -126 0
-47 -126 0
-48 -128 0
-46 -128 0
-49 -127 0
-49 -129 0
-50 -128 0
-49 -130 0
-49 -126 0
-49 -131 0
-47 -131 0
-47 -132 0
-46 -134 0
-50 -135 0
-50 -131 0
-47 -133 0
-48 -134 0
-46 -133 0
-46 -131 0
-50 -133 0
-49 -132 0
-53 -59 0
-55 -60 0
-52 -60 0
-55 -58 0
-53 -60 0
-55 -56 0
-54 -57 0
-54 -59 0
-51 -60 0
-52 -56 0
-51 -58 0
-53 -58 0
-55 -64 0
-53 -65 0
-55 -63 0
-55 -65 0
-51 -62 0
-51 -63 0
-54 -63 0
-52 -64 0
-53 -64 0
-55 -62 0
-53 -63 0
-54 -61 0
-55 -70 0
-53 -68 0
-55 -69 0
-52 -68 0
-52 -66 0
-53 -70 0
-51 -67 0
-52 -70 0
-52 -69 0
-55 -68 0
-54 -70 0
-55 -66 0
-55 -83 0
-54 -84 0
-51 -85 0
-55 -81 0
-54 -83 0
-53 -81 0
-52 -82 0
-53 -85 0
-52 -84 0
-53 -82 0
-55 -85 0
-54 -81 0
-52 -92 0
-55 -92 0
-51 -95 0
-51 -91 0
-53 -93 0
-55 -95 0
-52 -95 0
-54 -95 0
-53 -91 0
-53 -92 0
-55 -93 0
-53 -94 0
-51 -98 0
-53 -98 0
-55 -96 0
-54 -100 0
-52 -97 0
-53 -100 0
-53 -97 0
-51 -99 0
-54 -99 0
-51 -96 0
-55 -98 0
-55 -97 0
-55 -101 0
-51 -101 0
-51 -103 0
-54 -105 0
-52 -102 0
-51 -102 0
-52 -101 0
-53 -105 0
-54 -104 0
-55 -104 0
-54 -101 0
-53 -104 0
-55 -111 0
-51 -114 0
-54 -114 0
-55 -115 0
-51 -111 0
-51 -113 0
-55 -112 0
-51 -112 0
-54 -115 0
-53 -115 0
-55 -114 0
-54 -112 0
-55 -120 0
-51 -119 0
-55 -116 0
-51 -120 0
-53 -120 0
-51 -116 0
-52 -116 0
-53 -117 0
-52 -118 0
-54 -120 0
-55 -117 0
-53 -118 0
-54 -127 0
-53 -126 0
-54 -128 0
-55 -127 0
-51 -126 0
-55 -130 0
-55 -129 0
-55 -128 0
-51 -127 0
-54 -129 0
-52 -126 0
-52 -129 0
-53 -134 0
-51 -131 0
-55 -131 0
-52 -134 0
-51 -135 0
-55 -134 0
-55 -135 0
-54 -133 0
-52 -135 0
-51 -134 0
-54 -134 0
-54 -131 0
-52 -143 0
-52 -142 0
-53 -142 0
-51 -141 0
-55 -142 0
-52 -141 0
-55 -144 0
-51 -145 0
-54 -143 0
-53 -143 0
-53 -144 0
-55 -143 0
-58 -65 0
-56 -64 0
-58 -62 0
-57 -65 0
-57 -62 0
-60 -62 0
-56 -62 0
-59 -63 0
-60 -65 0
-58 -64 0
-58 -61 0
-58 -63 0
-56 -72 0
-58 -75 0
-56 -73 0
-58 -72 0
-58 -74 0
-58 -73 0
-60 -71 0
-57 -71 0
-59 -73 0
-59 -72 0
-60 -73 0
-59 -71 0
-59 -79 0
-56 -77 0
-60 -79 0
-56 -78 0
-59 -77 0
-60 -77 0
-59 -76 0
-57 -78 0
-58 -76 0
-59 -80 0
-58 -80 0
-58 -77 0
-59 -83 0
-60 -83 0
-59 -81 0
-56 -81 0
-60 -84 0
-56 -82 0
-58 -84 0
-60 -85 0
-57 -82 0
-57 -83 0
-57 -85 0
-56 -85 0
-57 -89 0
-57 -88 0
-59 -90 0
-58 -88 0
-59 -86 0
-57 -90 0
-60 -88 0
-57 -86 0
-60 -90 0
-59 -87 0
-60 -86 0
-58 -90 0
-57 -92 0
-59 -95 0
-57 -95 0
-58 -93 0
-59 -94 0
-56 -93 0
-60 -91 0
-58 -92 0
-59 -93 0
-56 -91 0
-56 -92 0
-59 -91 0
-60 -110 0
-59 -108 0
-56 -106 0
-57 -109 0
-58 -108 0
-58 -110 0
-58 -109 0
-56 -108 0
-59 -106 0
-56 -107 0
-59 -109 0
-56 -109 0
-58 -116 0
-58 -120 0
-59 -119 0
-57 -120 0
-57 -118 0
-57 -119 0
-59 -116 0
-56 -117 0
-56 -120 0
-60 -120 0
-60 -118 0
-56 -119 0
-59 -122 0
-58 -121 0
-56 -123 0
-57 -121 0
-58 -123 0
-59 -121 0
-59 -124 0
-58 -124 0
-59 -123 0
-59 -125 0
-60 -123 0
-60 -125 0
-59 -129 0
-57 -130 0
-56 -127 0
-58 -130 0
-56 -128 0
-57 -128 0
-59 -127 0
-60 -130 0
-58 -128 0
-56 -130 0
-56 -129 0
-59 -128 0
-62 -88 0
-61 -87 0
-64 -86 0
-64 -88 0
-64 -90 0
-62 -89 0
-61 -89 0
-61 -88 0
-62 -86 0
-65 -89 0
-65 -90 0
-62 -87 0
-61 -102 0
-61 -105 0
-62 -103 0
-64 -102 0
-64 -101 0
-62 -104 0
-64 -105 0
-61 -101 0
-64 -103 0
-65 -104 0
-64 -104 0
-63 -102 0
-65 -112 0
-61 -111 0
-62 -114 0
-65 -113 0
-65 -114 0
-65 -111 0
-63 -114 0
-62 -112 0
-64 -114 0
-63 -113 0
-62 -113 0
-62 -115 0
-64 -119 0
-63 -118 0
-62 -119 0
-61 -118 0
-65 -119 0
-63 -116 0
-61 -117 0
-62 -116 0
-61 -119 0
-64 -116 0
-63 -120 0
-65 -117 0
-64 -126 0
-65 -126 0
-62 -126 0
-61 -128 0
-61 -126 0
-65 -127 0
-65 -128 0
-62 -129 0
-63 -128 0
-65 -130 0
-61 -127 0
-63 -127 0
-62 -132 0
-61 -135 0
-61 -133 0
-64 -132 0
-62 -134 0
-63 -133 0
-62 -133 0
-65 -135 0
-65 -133 0
-64 -135 0
-61 -131 0
-64 -133 0
-62 -137 0
-61 -137 0
-62 -136 0
-65 -136 0
-63 -137 0
-63 -138 0
-64 -140 0
-64 -137 0
-61 -138 0
-65 -139 0
-62 -140 0
-64 -136 0
-61 -143 0
-61 -142 0
-65 -145 0
-62 -141 0
-62 -143 0
-63 -144 0
-63 -141 0
-63 -143 0
-62 -145 0
-64 -144 0
-64 -141 0
-65 -144 0
-69 -78 0
-68 -78 0
-67 -78 0
-67 -77 0
-70 -77 0
-67 -79 0
-68 -77 0
-68 -76 0
-70 -79 0
-66 -80 0
-66 -77 0
-70 -80 0
-69 -81 0
-67 -85 0
-68 -83 0
-68 -82 0
-68 -84 0
-70 -84 0
-67 -83 0
-69 -82 0
-70 -82 0
-66 -83 0
-67 -82 0
-66 -82 0
-66 -100 0
-67 -96 0
-68 -97 0
-68 -100 0
-67 -98 0
-66 -99 0
-69 -100 0
-70 -100 0
-70 -98 0
-68 -98 0
-69 -98 0
-67 -99 0
-67 -102 0
-69 -102 0
-68 -102 0
-67 -103 0
-68 -103 0
-67 -105 0
-68 -101 0
-69 -105 0
-69 -104 0
-67 -101 0
-66 -105 0
-67 -104 0
-68 -110 0
-67 -108 0
-69 -109 0
-67 -109 0
-66 -107 0
-67 -106 0
-66 -106 0
-69 -110 0
-68 -106 0
-68 -108 0
-70 -106 0
-70 -107 0
-66 -115 0
-68 -114 0
-69 -112 0
-70 -111 0
-67 -113 0
-67 -115 0
-70 -114 0
-69 -113 0
-70 -115 0
-70 -113 0
-68 -111 0
-67 -111 0
-69 -127 0
-69 -128 0
-66 -126 0
-66 -130 0
-66 -127 0
-67 -128 0
-69 -130 0
-66 -128 0
-70 -127 0
-67 -130 0
-68 -128 0
-68 -130 0
-69 -134 0
-68 -134 0
-67 -135 0
-66 -131 0
-66 -132 0
-70 -134 0
-70 -133 0
-67 -134 0
-67 -131 0
-68 -133 0
-70 -132 0
-66 -134 0
-69 -144 0
-70 -141 0
-69 -143 0
-69 -141 0
-70 -143 0
-66 -142 0
-67 -142 0
-68 -141 0
-66 -143 0
-68 -142 0
-68 -144 0
-68 -145 0
-67 -147 0
-67 -148 0
-66 -147 0
-69 -147 0
-68 -146 0
-69 -148 0
-70 -148 0
-66 -150 0
-69 -146 0
-66 -149 0
-70 -147 0
-68 -150 0
-71 -77 0
-73 -80 0
-74 -77 0
-73 -78 0
-75 -80 0
-71 -80 0
-74 -76 0
-74 -78 0
-71 -79 0
-72 -80 0
-73 -79 0
-72 -77 0
-73 -89 0
-75 -90 0
-72 -87 0
-75 -89 0
-75 -88 0
-73 -88 0
-74 -86 0
-73 -86 0
-72 -86 0
-73 -87 0
-71 -86 0
-75 -87 0
-75 -100 0
-74 -99 0
-75 -96 0
-72 -100 0
-71 -96 0
-71 -99 0
-72 -99 0
-73 -97 0
-73 -100 0
-74 -100 0
-72 -97 0
-75 -98 0
-71 -120 0
-71 -116 0
-72 -118 0
-75 -117 0
-71 -118 0
-71 -117 0
-73 -116 0
-74 -118 0
-72 -120 0
-73 -119 0
-73 -117 0
-73 -118 0
-74 -123 0
-71 -124 0
-71 -125 0
-75 -125 0
-73 -122 0
-72 -123 0
-72 -121 0
-72 -124 0
-73 -124 0
-73 -121 0
-74 -122 0
-72 -122 0
-73 -129 0
-72 -127 0
-72 -129 0
-75 -130 0
-74 -129 0
-75 -129 0
-74 -128 0
-74 -130 0
-73 -128 0
-73 -126 0
-74 -126 0
-71 -130 0
-74 -141 0
-73 -144 0
-72 -141 0
-71 -142 0
-74 -143 0
-73 -141 0
-75 -142 0
-75 -145 0
-75 -143 0
-71 -144 0
-75 -141 0
-74 -144 0
-71 -149 0
-73 -147 0
-72 -147 0
-74 -149 0
-74 -146 0
-73 -150 0
-75 -148 0
-73 -149 0
-74 -148 0
-73 -146 0
-73 -148 0
-75 -146 0
-77 -97 0
-78 -97 0
-76 -99 0
-80 -97 0
-77 -98 0
-76 -97 0
-80 -99 0
-76 -100 0
-79 -100 0
-80 -96 0
-77 -99 0
-80 -100 0
-79 -104 0
-80 -103 0
-78 -104 0
-76 -102 0
-76 -103 0
-80 -104 0
-80 -101 0
-79 -101 0
-76 -101 0
-80 -102 0
-77 -102 0
-77 -105 0
-78 -111 0
-80 -112 0
-79 -113 0
-79 -114 0
-77 -111 0
-79 -115 0
-78 -112 0
-79 -112 0
-77 -113 0
-80 -114 0
-76 -111 0
-76 -112 0
-78 -139 0
-76 -138 0
-79 -140 0
-80 -139 0
-76 -139 0
-80 -137 0
-80 -136 0
-77 -139 0
-80 -140 0
-77 -140 0
-79 -139 0
-77 -138 0
-77 -141 0
-76 -144 0
-78 -142 0
-79 -142 0
-78 -141 0
-76 -141 0
-76 -143 0
-76 -145 0
-79 -145 0
-80 -142 0
-80 -143 0
-79 -143 0
-80 -150 0
-80 -147 0
-78 -148 0
-78 -147 0
-76 -148 0
-77 -147 0
-77 -150 0
-76 -150 0
-79 -148 0
-80 -149 0
-79 -146 0
-77 -148 0
-83 -98 0
-82 -96 0
-84 -98 0
-83 -100 0
-84 -97 0
-85 -97 0
-82 -97 0
-84 -96 0
-81 -96 0
-84 -99 0
-85 -99 0
-85 -96 0
-82 -103 0
-83 -102 0
-82 -105 0
-81 -101 0
-83 -105 0
-85 -102 0
-83 -101 0
-84 -105 0
-84 -101 0
-81 -105 0
-82 -102 0
-83 -104 0
-85 -113 0
-85 -114 0
-84 -111 0
-83 -113 0
-83 -111 0
-81 -114 0
-84 -115 0
-84 -114 0
-82 -113 0
-85 -111 0
-81 -112 0
-84 -113 0
-85 -122 0
-84 -122 0
-83 -124 0
-85 -125 0
-85 -121 0
-84 -125 0
-81 -121 0
-81 -123 0
-83 -125 0
-82 -121 0
-83 -122 0
-84 -123 0
-84 -138 0
-83 -136 0
-82 -136 0
-83 -140 0
-81 -140 0
-82 -137 0
-81 -136 0
-84 -140 0
-84 -136 0
-84 -137 0
-82 -138 0
-84 -139 0
-84 -141 0
-82 -142 0
-81 -141 0
-82 -145 0
-85 -143 0
-82 -144 0
-82 -141 0
-83 -143 0
-85 -141 0
-85 -144 0
-85 -142 0
-83 -142 0
-85 -146 0
-85 -148 0
-82 -146 0
-84 -148 0
-85 -149 0
-83 -148 0
-85 -150 0
-82 -150 0
-83 -146 0
-83 -150 0
-81 -147 0
-81 -150 0
-89 -105 0
-87 -101 0
-90 -105 0
-87 -103 0
-88 -105 0
-87 -105 0
-90 -104 0
-89 -104 0
-86 -102 0
-86 -101 0
-87 -104 0
-86 -103 0
-86 -108 0
-89 -108 0
-89 -109 0
-90 -107 0
-86 -106 0
-86 -107 0
-88 -109 0
-88 -108 0
-87 -108 0
-87 -110 0
-90 -106 0
-89 -107 0
-87 -113 0
-87 -114 0
-88 -115 0
-89 -114 0
-88 -113 0
-89 -113 0
-90 -115 0
-88 -112 0
-89 -112 0
-88 -114 0
-87 -115 0
-86 -114 0
-89 -144 0
-87 -143 0
-86 -145 0
-86 -143 0
-88 -142 0
-89 -141 0
-88 -144 0
-86 -141 0
-89 -142 0
-88 -141 0
-87 -145 0
-90 -141 0
-95 -97 0
-94 -99 0
-95 -100 0
-91 -99 0
-93 -97 0
-93 -99 0
-92 -99 0
-94 -98 0
-95 -99 0
-92 -96 0
-91 -96 0
-91 -98 0
-95 -112 0
-95 -111 0
-91 -112 0
-93 -113 0
-92 -112 0
-93 -115 0
-92 -114 0
-95 -113 0
-94 -115 0
-94 -114 0
-94 -113 0
-93 -112 0
-95 -119 0
-95 -118 0
-95 -117 0
-93 -117 0
-94 -117 0
-93 -120 0
-93 -119 0
-91 -120 0
-95 -120 0
-92 -120 0
-93 -118 0
-91 -116 0
-95 -124 0
-93 -123 0
-92 -123 0
-91 -122 0
-94 -124 0
-95 -125 0
-93 -122 0
-93 -121 0
-95 -121 0
-94 -121 0
-91 -123 0
-91 -124 0
-94 -135 0
-92 -133 0
-94 -131 0
-95 -132 0
-95 -131 0
-95 -134 0
-94 -133 0
-93 -135 0
-91 -135 0
-93 -134 0
-94 -132 0
-91 -134 0
-94 -141 0
-94 -142 0
-91 -145 0
-92 -143 0
-92 -144 0
-91 -141 0
-95 -145 0
-91 -142 0
-94 -144 0
-95 -141 0
-92 -142 0
-94 -145 0
-92 -150 0
-91 -150 0
-95 -150 0
-94 -150 0
-91 -146 0
-94 -146 0
-91 -149 0
-92 -146 0
-93 -150 0
-95 -147 0
-95 -149 0
-92 -149 0
-96 -110 0
-96 -107 0
-98 -108 0
-97 -109 0
-99 -108 0
-98 -109 0
-96 -108 0
-98 -110 0
-97 -106 0
-100 -109 0
-97 -108 0
-100 -108 0
-99 -116 0
-96 -119 0
-98 -120 0
-100 -117 0
-97 -118 0
-99 -119 0
-100 -116 0
-96 -116 0
-97 -119 0
-96 -117 0
-98 -117 0
-96 -118 0
-97 -137 0
-100 -140 0
-98 -137 0
-100 -138 0
-96 -138 0
-98 -139 0
-98 -138 0
-97 -136 0
-97 -138 0
-100 -137 0
-98 -140 0
-97 -140 0
-105 -110 0
-103 -107 0
-103 -108 0
-102 -110 0
-103 -109 0
-101 -106 0
-105 -107 0
-101 -109 0
-105 -109 0
-103 -110 0
-104 -109 0
-101 -110 0
-103 -125 0
-102 -124 0
-103 -121 0
-104 -125 0
-102 -121 0
-101 -123 0
-102 -123 0
-104 -122 0
-102 -122 0
-101 -124 0
-105 -123 0
-105 -122 0
-102 -137 0
-105 -138 0
-102 -139 0
-103 -137 0
-105 -139 0
-105 -140 0
-101 -137 0
-101 -138 0
-103 -140 0
-101 -136 0
-105 -136 0
-101 -139 0
-107 -112 0
-109 -112 0
-107 -111 0
-110 -114 0
-106 -111 0
-107 -115 0
-109 -111 0
-107 -114 0
-108 -115 0
-106 -114 0
-106 -115 0
-110 -115 0
-108 -121 0
-110 -122 0
-107 -122 0
-110 -124 0
-109 -123 0
-108 -125 0
-109 -122 0
-108 -124 0
-110 -125 0
-110 -123 0
-107 -124 0
-106 -124 0
-107 -127 0
-107 -129 0
-110 -127 0
-109 -126 0
-108 -130 0
-108 -127 0
-107 -126 0
-106 -129 0
-109 -128 0
-108 -129 0
-106 -126 0
-106 -128 0
-113 -116 0
-115 -120 0
-113 -119 0
-115 -118 0
-112 -120 0
-111 -119 0
-112 -118 0
-113 -118 0
-115 -119 0
-111 -118 0
-113 -120 0
-112 -119 0
-112 -123 0
-113 -122 0
-112 -124 0
-113 -124 0
-114 -122 0
-114 -121 0
-115 -122 0
-111 -122 0
-111 -125 0
-112 -125 0
-111 -121 0
-111 -124 0
-115 -126 0
-113 -126 0
-111 -126 0
-115 -128 0
-115 -130 0
-114 -126 0
-113 -130 0
-111 -130 0
-114 -129 0
-115 -127 0
-112 -127 0
-112 -129 0
-113 -133 0
-112 -134 0
-113 -131 0
-112 -133 0
-114 -132 0
-112 -135 0
-114 -133 0
-115 -134 0
-111 -131 0
-111 -133 0
-113 -135 0
-113 -134 0
-111 -137 0
-115 -140 0
-112 -137 0
-114 -136 0
-113 -140 0
-111 -136 0
-115 -136 0
-115 -138 0
-112 -140 0
-111 -140 0
-114 -138 0
-111 -139 0
-114 -143 0
-114 -141 0
-111 -145 0
-113 -143 0
-115 -145 0
-114 -144 0
-114 -145 0
-115 -144 0
-115 -141 0
-113 -145 0
-112 -141 0
-115 -143 0
-120 -125 0
-117 -124 0
-120 -124 0
-116 -124 0
-119 -124 0
-120 -122 0
-117 -122 0
-118 -122 0
-117 -121 0
-118 -121 0
-116 -125 0
-119 -121 0
-117 -130 0
-120 -126 0
-118 -126 0
-116 -126 0
-118 -128 0
-120 -129 0
-119 -130 0
-117 -128 0
-120 -130 0
-116 -130 0
-116 -128 0
-117 -129 0
-118 -140 0
-117 -140 0
-118 -139 0
-119 -137 0
-118 -138 0
-119 -136 0
-120 -137 0
-120 -138 0
-119 -139 0
-117 -138 0
-116 -136 0
-116 -140 0
-118 -142 0
-120 -145 0
-118 -143 0
-117 -145 0
-120 -141 0
-117 -143 0
-117 -144 0
-117 -141 0
-119 -145 0
-116 -145 0
-117 -142 0
-118 -141 0
-118 -147 0
-119 -146 0
-116 -149 0
-120 -147 0
-116 -148 0
-119 -150 0
-117 -150 0
-117 -146 0
-118 -149 0
-117 -147 0
-116 -146 0
-119 -149 0
-122 -134 0
-121 -134 0
-125 -131 0
-125 -133 0
-122 -131 0
-122 -133 0
-124 -134 0
-123 -133 0
-124 -131 0
-122 -135 0
-123 -131 0
-125 -135 0
-127 -144 0
-130 -143 0
-127 -143 0
-126 -143 0
-129 -143 0
-128 -144 0
-129 -145 0
-126 -144 0
-126 -142 0
-128 -141 0
-129 -144 0
-127 -145 0
-132 -137 0
-131 -138 0
-131 -137 0
-131 -139 0
-135 -136 0
-135 -137 0
-134 -137 0
-132 -139 0
-131 -136 0
-134 -138 0
-133 -136 0
-134 -136 0
-134 -147 0
-133 -148 0
-131 -148 0
-133 -146 0
-135 -146 0
-134 -146 0
-133 -150 0
-134 -150 0
-135 -148 0
-131 -147 0
-132 -146 0
-135 -150 0
-137 -144 0
-139 -143 0
-138 -142 0
-139 -144 0
-136 -143 0
-136 -142 0
-137 -143 0
-138 -145 0
-136 -141 0
-138 -143 0
-139 -145 0
-140 -145 0
-137 -148 0
-140 -150 0
-140 -147 0
-139 -147 0
-138 -146 0
-137 -149 0
-136 -146 0
-139 -148 0
-140 -148 0
-139 -146 0
-138 -148 0
-139 -149 0
